nTasks=4;
nThreads=7;
nCPUs=3;
nCores=9;
rh=[173.793343041 564.39180218 152.456974179 706.065271074 468.625683982 997.106109939 123.498747703];
rc=[786.815345071 459.471952394 686.99713368];
CK=[
	[1 1 0 0 0 0 0 0 0]
	[0 0 1 1 1 1 0 0 0]
	[0 0 0 0 0 0 1 1 1]
];
TH=[
	[1 1 1 1 0 0 0]
	[0 0 0 0 1 0 0]
	[0 0 0 0 0 1 0]
	[0 0 0 0 0 0 1]
];
